NAME: GRASP_55_5
TYPE: TSP
COMMENT: line_55_5
DIMENSION: 55
EDGE_WEIGHT_TYPE: EUC_2D
NODE_COORD_SECTION
1 4012 315
2 1266 1701
3 347 887
4 3807 127
5 1209 3655
6 3388 3152
7 1983 3082
8 551 1044
9 1033 3498
10 3844 528
11 1866 3013
12 2431 3732
13 62 3161
14 4789 430
15 1023 1764
16 116 237
17 1373 2967
18 2625 2673
19 2517 105
20 2678 1373
21 1706 4024
22 433 3450
23 4875 779
24 3333 1478
25 1588 3304
26 2269 4164
27 4528 2057
28 3072 635
29 873 1911
30 3569 1158
31 559 3176
32 3737 2444
33 1940 2803
34 1909 2026
35 1974 104
36 2381 3808
37 257 4624
38 3106 981
39 3991 2947
40 2483 2672
41 1522 1142
42 4339 3214
43 3982 2720
44 715 1622
45 4517 3048
46 4790 98
47 4245 1595
48 297 3461
49 4620 4154
50 3924 1817
51 1794 310
52 1710 4771
53 4309 2863
54 4789 1986
55 4458 4118
